c
c Mapping from original variables to numbers:
c {'x1': 5, 'x4': 6, 'x3': 8, 'x9': 9, 'x7': 12, 'x5': 18, 'x6': 21}
c List of auxiliary variables:
c [1, 2, 3, 4, 7, 10, 11, 13, 14, 15, 16, 17, 19, 20, 22]
c Variable corresponding to root node: 1
c
p cnf 22 45
-1 2 0
-1 14 0
-2 -14 1 0
-2 3 10 0
-3 2 0
-10 2 0
-3 4 0
-3 7 0
-4 -7 3 0
-4 5 -6 0
-5 4 0
6 4 0
-7 8 9 0
-8 7 0
-9 7 0
-10 11 0
-10 13 0
-11 -13 10 0
-11 12 5 0
-12 11 0
-5 11 0
-13 6 9 0
-6 13 0
-9 13 0
-14 15 19 0
-15 14 0
-19 14 0
-15 16 0
-15 17 0
-16 -17 15 0
-16 9 9 0
-9 16 0
-9 16 0
-17 -6 -18 0
6 17 0
18 17 0
-19 20 0
-19 22 0
-20 -22 19 0
-20 8 -21 0
-8 20 0
21 20 0
-22 -8 21 0
8 22 0
-21 22 0
